120
150
35
21
20
92
53
71
38
73
97
52
93
36
55
95
47
78
97
52
73
25
73
24
40
61
40
21
67
25
97
52
52
48
95
82
55
95
67
43
92
55
21
55
50
94
87
32
63
24
38
41
95
20
43
68
92
82
55
58
27
95
27
52
73
55
66
63
27
60
25
29
29
67
95
89
55
61
79
87
52
38
27
63
90
38
80
43
33
22
56
54
77
95
73
55
63
86
27
95
92
82
40
58
77
55
36
73
72
35
31
43
72
80
46
70
63
32
41
46
97
52
